
List of user-set options:

                                    Name   Value                used
                           compl_inf_tol = 1                     yes
                         constr_viol_tol = 1                     yes
                            dual_inf_tol = 1000                  yes
                           linear_solver = ma97                  yes
                              ma86_small = 1e-30                  no
                                  ma86_u = 0.0001                 no
                              ma97_order = best                  yes
                              ma97_small = 1e-30                 yes
                            ma97_switch1 = at_start              yes
                            ma97_switch2 = od_hd_reuse           yes
                                  ma97_u = 1e-06                 yes
                               ma97_umax = 0.5                   yes
                                max_iter = 1000                  yes
                    max_refinement_steps = 20                    yes
                    min_refinement_steps = 5                     yes
                                 mu_init = 1e-06                 yes
           mu_superlinear_decrease_power = 1.25                  yes
                   nlp_scaling_min_value = 1e-08                 yes
                        option_file_name = Preset_Case:_896_NCP.opt  yes
                             output_file = ./tmp/Preset_Case:_896_NCP.output  yes
                      print_user_options = yes                   yes
        required_infeasibility_reduction = 1                      no
                                     tol = 1e-08                 yes
                   warm_start_bound_frac = 1e-20                 yes
                   warm_start_bound_push = 1e-20                 yes
                   warm_start_init_point = yes                   yes
              warm_start_mult_bound_push = 1e-20                 yes
                warm_start_mult_init_max = 1e+40                 yes
             warm_start_slack_bound_frac = 1e-20                 yes
             warm_start_slack_bound_push = 1e-20                 yes

******************************************************************************
This program contains Ipopt, a library for large-scale nonlinear optimization.
 Ipopt is released as open source code under the Eclipse Public License (EPL).
         For more information visit http://projects.coin-or.org/Ipopt
******************************************************************************

This is Ipopt version 3.12.10, running with linear solver ma97.

Number of nonzeros in equality constraint Jacobian...:   117167
Number of nonzeros in inequality constraint Jacobian.:      213
Number of nonzeros in Lagrangian Hessian.............:    47513

Total number of variables............................:    29977
                     variables with only lower bounds:    11312
                variables with lower and upper bounds:    15135
                     variables with only upper bounds:        0
Total number of equality constraints.................:    29864
Total number of inequality constraints...............:       25
        inequality constraints with only lower bounds:        4
   inequality constraints with lower and upper bounds:        0
        inequality constraints with only upper bounds:       21

iter    objective    inf_pr   inf_du lg(mu)  ||d||  lg(rg) alpha_du alpha_pr  ls
   0 -1.8565055e-01 1.08e-01 2.00e+00  -6.0 0.00e+00    -  0.00e+00 0.00e+00   0
In iteration 0, 10 Slacks too small, adjusting variable bounds
   1 -1.8565055e-01 1.08e-01 1.87e+02  -6.0 1.14e+10    -  1.86e-14 2.31e-18h  1
   2 -1.8564743e-01 1.08e-01 1.88e+02  -6.0 3.08e+02    -  6.28e-03 4.22e-05f  1
   3 -1.8533854e-01 1.08e-01 1.89e+02  -6.0 1.05e+02    -  1.35e-02 5.33e-03h  1
   4 -1.8449034e-01 1.06e-01 1.84e+02  -6.0 1.71e+02    -  1.22e-02 1.89e-02h  2
   5 -1.8252406e-01 1.02e-01 1.75e+02  -6.0 8.61e+01    -  1.64e-02 3.80e-02h  1
   6 -1.7982362e-01 9.63e-02 2.54e+02  -6.0 8.14e+01    -  3.58e-02 5.45e-02h  2
   7 -1.7725641e-01 9.14e-02 2.91e+02  -6.0 7.57e+01    -  2.12e-02 5.06e-02h  2
   8 -1.7344193e-01 8.38e-02 3.74e+02  -6.0 6.93e+01    -  1.03e-01 8.36e-02h  1
   9 -1.7086585e-01 7.87e-02 1.45e+04  -6.0 7.47e+01    -  8.40e-02 6.04e-02h  4
iter    objective    inf_pr   inf_du lg(mu)  ||d||  lg(rg) alpha_du alpha_pr  ls
  10 -1.6676489e-01 7.06e-02 8.86e+04  -6.0 6.90e+01    -  2.73e-01 1.03e-01h  1
  11 -1.3333221e-01 1.22e-01 2.06e+05  -6.0 6.20e+01    -  1.32e-01 9.39e-01H  1
  12 -1.3209435e-01 4.84e-02 1.11e+05  -6.0 4.79e+00    -  4.89e-01 5.24e-01h  1
  13 -1.3124371e-01 2.97e-03 1.68e+04  -6.0 3.17e+00    -  6.20e-01 1.00e+00h  1
  14 -1.3191984e-01 1.25e-02 9.21e+04  -6.0 3.82e+00    -  5.31e-01 1.00e+00h  1
  15 -1.3220312e-01 1.15e-02 2.69e+04  -6.0 7.63e+00    -  2.46e-01 2.08e-01h  1
  16 -1.3334240e-01 4.30e-03 1.51e+05  -6.0 6.10e+00    -  1.02e-02 1.00e+00h  1
  17 -1.3380172e-01 2.04e-03 6.98e+04  -6.0 5.39e+00    -  7.28e-01 5.41e-01h  1
  18 -1.3512278e-01 6.95e-03 1.73e+02  -6.0 1.05e+01    -  7.27e-01 1.00e+00f  1
  19 -1.3590754e-01 1.04e-02 1.42e+02  -6.0 3.99e+01    -  3.26e-01 1.31e-01h  1
iter    objective    inf_pr   inf_du lg(mu)  ||d||  lg(rg) alpha_du alpha_pr  ls
  20 -1.4192729e-01 1.75e-01 4.00e+01  -6.0 5.88e+01    -  5.61e-01 7.67e-01F  1
  21 -1.4382498e-01 2.02e-01 2.65e+01  -6.0 1.38e+02    -  7.10e-01 1.27e-01h  3
  22 -1.4494302e-01 2.08e-01 2.52e+01  -6.0 6.71e+02    -  2.09e-01 1.78e-02h  5
  23 -1.4546774e-01 2.09e-01 3.55e+01  -6.0 1.01e+03    -  1.25e-01 5.94e-03h  6
  24 -1.4573492e-01 2.09e-01 7.69e+01  -6.0 1.27e+03    -  2.69e-01 2.55e-03h  7
  25 -1.4596304e-01 2.76e-03 1.77e+01  -6.0 4.44e-01  -4.0 7.73e-01 1.00e+00h  1
  26 -1.4648408e-01 2.80e-02 1.18e+00  -6.0 1.13e+00  -4.5 9.97e-01 8.94e-01h  1
  27 -1.4786833e-01 2.53e-01 4.22e+00  -6.0 3.37e+00  -5.0 1.00e+00 1.00e+00h  1
  28 -1.4844605e-01 2.60e-01 1.15e+01  -6.0 9.61e+00  -5.4 1.00e+00 2.05e-01h  1
  29 -1.5012862e-01 5.67e-01 2.50e+01  -6.0 3.02e+01  -5.9 1.00e+00 2.62e-01h  1
iter    objective    inf_pr   inf_du lg(mu)  ||d||  lg(rg) alpha_du alpha_pr  ls
  30 -1.5430211e-01 1.10e+00 5.86e+01  -6.0 1.04e+02  -6.4 6.04e-01 2.99e-01h  1
  31 -1.6616730e-01 1.66e+00 1.25e+02  -6.0 5.05e+02  -6.9 2.50e-02 2.21e-01h  1
  32 -1.6622189e-01 1.65e+00 1.23e+02  -6.0 1.62e+02  -7.3 1.80e-02 4.80e-03h  1
  33 -1.6607711e-01 1.55e+00 1.69e+02  -6.0 1.34e+02  -6.0 8.05e-04 6.13e-02h  1
  34 -1.6620534e-01 1.38e+00 1.50e+02  -6.0 1.17e+01  -5.6 1.17e-01 1.13e-01h  1
  35 -1.6633610e-01 1.10e+00 2.50e+02  -6.0 8.45e+00  -5.2 3.34e-01 2.12e-01h  1
  36 -1.6672060e-01 8.29e-01 8.01e+02  -6.0 7.51e+00  -5.6 1.00e+00 2.46e-01h  1
  37 -1.6751585e-01 5.74e-01 3.42e+02  -6.0 1.99e+01  -6.1 2.00e-01 3.05e-01h  1
  38 -1.6916364e-01 6.38e-01 3.50e+03  -6.0 6.82e+01  -6.6 9.50e-01 2.97e-01h  1
  39 -1.7357895e-01 2.73e+00 8.37e+02  -6.0 1.52e+02  -7.1 2.29e-01 3.92e-01h  1
iter    objective    inf_pr   inf_du lg(mu)  ||d||  lg(rg) alpha_du alpha_pr  ls
  40 -1.7452838e-01 2.63e+00 5.60e+03  -6.0 4.14e+02  -7.5 1.97e-01 3.89e-02h  1
  41 -1.7536833e-01 2.42e+00 1.17e+04  -6.0 2.46e+03  -8.0 1.66e-01 1.66e-02h  1
  42 -1.7661384e-01 2.16e+00 3.05e+04  -6.0 3.81e+02  -7.6 1.00e+00 7.91e-02h  1
  43 -1.7809512e-01 2.92e+00 3.14e+04  -6.0 1.74e+03  -8.1 2.44e-01 6.01e-02h  1
  44 -1.7987474e-01 3.28e+00 3.62e+04  -6.0 4.07e+02  -7.6 1.00e+00 2.17e-01h  1
  45 -1.8637840e-01 6.07e+00 2.97e+04  -6.0 1.02e+03  -8.1 5.49e-01 3.89e-01h  1
  46 -1.8890336e-01 6.21e+00 1.18e+05  -6.0 1.76e+03  -8.6 4.86e-01 6.65e-02h  1
  47 -1.9037217e-01 5.81e+00 2.13e+05  -6.0 7.97e+02  -8.2 7.60e-01 9.33e-02h  1
  48 -1.9620516e-01 9.58e+00 2.11e+05  -6.0 4.77e+03  -8.7 2.54e-01 1.25e-01h  1
  49 -1.9688644e-01 8.99e+00 4.32e+05  -6.0 5.21e+02  -8.2 8.91e-01 6.24e-02h  1
iter    objective    inf_pr   inf_du lg(mu)  ||d||  lg(rg) alpha_du alpha_pr  ls
  50 -1.9961019e-01 5.73e+00 2.47e+05  -6.0 2.34e+02  -7.8 2.95e-01 3.80e-01h  1
  51r-1.9961019e-01 5.73e+00 1.00e+03   0.2 0.00e+00  -8.3 0.00e+00 3.12e-07R  5
  52r-1.9923984e-01 5.73e+00 1.00e+03   0.2 1.40e+04    -  2.31e-07 1.82e-06f  1
  53 -1.9927369e-01 3.43e+00 5.69e+05  -6.0 2.10e+01    -  4.60e-02 3.99e-01h  1
  54 -1.9926250e-01 3.10e+00 5.40e+05  -6.0 1.33e+01    -  2.30e-01 9.51e-02h  1
  55 -1.9922128e-01 1.93e+00 3.28e+05  -6.0 1.16e+01    -  2.35e-01 3.76e-01h  1
  56 -1.9914751e-01 2.09e-02 8.84e+03  -6.0 6.91e+00    -  6.14e-01 1.00e+00h  1
  57 -1.9918159e-01 1.90e-03 7.65e+02  -6.0 2.15e-01    -  9.46e-01 9.09e-01h  1
  58 -1.9933868e-01 1.26e-03 4.96e+02  -6.0 3.98e+00    -  7.35e-01 3.21e-01f  1
  59 -1.9951248e-01 5.94e-04 4.15e+02  -6.0 1.47e+01    -  7.43e-01 1.45e-01f  1
iter    objective    inf_pr   inf_du lg(mu)  ||d||  lg(rg) alpha_du alpha_pr  ls
  60 -2.0060235e-01 4.66e-02 1.61e+02  -6.0 3.36e+01    -  5.59e-01 6.11e-01f  1
  61 -2.0083019e-01 3.16e-02 1.37e+02  -6.0 7.75e+01    -  8.47e-01 1.45e-01h  1
  62 -2.0232806e-01 1.66e-01 1.09e+02  -6.0 4.16e+02    -  5.68e-01 2.02e-01h  1
  63 -2.0289037e-01 1.95e-01 1.23e+02  -6.0 1.96e+02  -7.9 8.89e-01 1.37e-01h  1
  64 -2.0366793e-01 2.13e-01 9.68e+01  -6.0 9.44e+01  -7.4 6.73e-01 3.24e-01h  1
  65 -2.0452945e-01 5.97e-02 4.64e+01  -6.0 3.59e+01  -7.0 9.77e-01 7.32e-01h  1
  66 -2.0665630e-01 1.93e-01 1.09e+02  -6.0 1.09e+02  -7.5 5.67e-01 1.00e+00h  1
  67 -2.0862536e-01 3.81e-01 3.82e+02  -6.0 2.83e+02  -8.0 1.00e+00 4.58e-01h  1
  68 -2.0906106e-01 3.84e-01 6.56e+02  -6.0 7.98e+02  -8.4 6.22e-01 4.51e-02h  1
  69 -2.1118662e-01 6.83e+00 6.39e+02  -6.0 6.59e+03  -8.9 1.52e-01 8.89e-02h  1
iter    objective    inf_pr   inf_du lg(mu)  ||d||  lg(rg) alpha_du alpha_pr  ls
  70 -2.1801832e-01 9.87e+00 1.18e+02  -6.0 7.90e+02  -8.5 1.00e+00 8.88e-01h  1
  71 -2.1871472e-01 1.04e+01 1.28e+02  -6.0 2.44e+03  -8.1 6.62e-07 1.53e-02H  1
  72 -2.1986362e-01 9.90e+00 4.37e+03  -6.0 6.73e+03  -8.5 2.08e-01 4.61e-02h  1
  73 -2.2051779e-01 8.75e+00 5.98e+03  -6.0 1.04e+03  -8.1 8.65e-02 1.19e-01h  1
  74r-2.2051779e-01 8.75e+00 1.00e+03   0.8 0.00e+00  -8.6 0.00e+00 4.94e-07R  3
  75r-2.2028438e-01 8.75e+00 1.00e+03   0.8 1.91e+07    -  3.06e-08 2.86e-07f  1
  76 -2.2029174e-01 8.70e+00 2.73e+03  -6.0 3.12e+02    -  2.18e-06 5.97e-03h  1
  77 -2.2029997e-01 8.34e+00 2.62e+03  -6.0 2.08e+02    -  8.75e-03 4.12e-02h  1
  78 -2.2029506e-01 8.13e+00 2.55e+03  -6.0 1.17e+02    -  4.77e-02 2.55e-02h  1
  79 -2.2025183e-01 6.96e+00 2.18e+03  -6.0 7.17e+01    -  1.06e-01 1.44e-01h  1
iter    objective    inf_pr   inf_du lg(mu)  ||d||  lg(rg) alpha_du alpha_pr  ls
  80 -2.2017101e-01 5.71e+00 1.79e+03  -6.0 8.15e+00    -  5.79e-02 1.79e-01h  1
  81 -2.1989536e-01 1.84e+00 5.79e+02  -6.0 6.67e+00    -  2.10e-01 6.77e-01h  1
  82 -2.1975209e-01 1.89e-03 1.41e+02  -6.0 2.17e+00    -  4.85e-01 1.00e+00h  1
  83 -2.1975778e-01 7.65e-06 4.76e-01  -6.0 6.77e-02    -  9.97e-01 1.00e+00h  1
  84 -2.2027387e-01 1.99e-02 6.09e-01  -6.0 2.23e+01    -  3.05e-01 3.10e-01h  1
  85 -2.2041036e-01 2.85e-02 7.21e+03  -6.0 3.24e+01    -  6.49e-01 1.28e-01f  1
  86 -2.2060881e-01 2.63e-02 1.13e+04  -6.0 7.24e+01    -  5.20e-01 1.22e-01h  1
  87 -2.2109863e-01 2.85e-02 1.69e+04  -6.0 1.25e+02    -  9.42e-01 3.15e-01h  1
  88 -2.2430290e-01 2.75e+00 9.45e+03  -6.0 1.05e+03    -  3.40e-01 3.66e-01h  1
  89 -2.2592895e-01 2.26e+00 8.32e+04  -6.0 7.16e+02    -  6.16e-01 1.99e-01h  1
iter    objective    inf_pr   inf_du lg(mu)  ||d||  lg(rg) alpha_du alpha_pr  ls
  90 -2.2801766e-01 3.66e+00 7.86e+04  -6.0 5.93e+03    -  7.98e-02 5.20e-02h  1
  91 -2.2865562e-01 4.02e+00 2.39e+06  -6.0 5.49e+04    -  1.08e-04 1.72e-03h  1
  92 -2.2957016e-01 3.51e+00 2.03e+06  -6.0 1.48e+03    -  8.29e-02 1.44e-01h  1
  93 -2.2992486e-01 3.20e+00 1.85e+06  -6.0 1.02e+03    -  5.88e-02 9.28e-02f  1
  94 -2.3237844e-01 2.97e+01 1.56e+06  -6.0 7.14e+03    -  2.89e-02 1.58e-01h  1
  95 -2.3248108e-01 2.93e+01 1.54e+06  -6.0 3.89e+03    -  2.67e-04 1.42e-02h  1
  96 -2.3339334e-01 1.55e+01 8.21e+05  -6.0 9.04e+02    -  8.14e-02 4.70e-01h  1
  97 -2.3438057e-01 1.43e+01 7.57e+05  -6.0 2.15e+03  -9.1 1.03e-01 7.81e-02h  1
  98 -2.3509728e-01 1.30e+01 6.86e+05  -6.0 9.61e+02  -8.6 1.91e-01 9.28e-02h  1
  99 -2.3960390e-01 1.21e+01 6.39e+05  -6.0 8.42e+03  -9.1 9.51e-03 6.88e-02h  1
iter    objective    inf_pr   inf_du lg(mu)  ||d||  lg(rg) alpha_du alpha_pr  ls
 100 -2.3988034e-01 1.09e+01 5.75e+05  -6.0 1.23e+02  -6.9 8.29e-03 1.01e-01h  1
 101 -2.4015632e-01 1.07e+01 5.68e+05  -6.0 1.10e+04    -  8.15e-04 1.07e-02h  1
 102 -2.4015599e-01 1.07e+01 5.68e+05  -6.0 5.88e+02  -7.4 3.04e-03 2.21e-04h  1
 103 -2.3993335e-01 1.07e+01 5.67e+05  -6.0 4.96e+04    -  2.56e-04 1.59e-03h  2
 104 -2.4034063e-01 1.05e+01 5.55e+05  -6.0 3.45e+03    -  3.96e-03 2.14e-02h  1
 105 -2.4033388e-01 1.05e+01 5.54e+05  -6.0 1.42e+04  -6.9 2.15e-02 1.87e-03h  1
 106 -2.4066421e-01 1.04e+01 5.51e+05  -6.0 7.96e+03    -  1.97e-04 5.85e-03h  1
 107 -2.4066568e-01 1.04e+01 5.50e+05  -6.0 1.90e+02  -6.5 1.77e-03 1.45e-03h  1
 108 -2.4080111e-01 1.01e+01 5.34e+05  -6.0 2.07e+02  -7.0 2.55e-01 2.65e-02f  1
 109 -2.4111263e-01 9.89e+00 5.21e+05  -6.0 2.42e+03    -  2.62e-01 2.32e-02h  1
iter    objective    inf_pr   inf_du lg(mu)  ||d||  lg(rg) alpha_du alpha_pr  ls
 110 -2.4245248e-01 8.42e+00 4.44e+05  -6.0 1.90e+03    -  1.06e-01 1.49e-01h  1
 111 -2.4427659e-01 6.74e+00 3.55e+05  -6.0 2.06e+03    -  3.15e-01 1.99e-01h  1
 112 -2.4790158e-01 7.68e+00 2.12e+05  -6.0 1.97e+03    -  1.60e-01 4.05e-01h  1
 113 -2.4814796e-01 2.65e+00 6.88e+04  -6.0 4.73e+02  -7.5 9.68e-06 6.77e-01h  1
 114 -2.4826996e-01 1.79e-01 4.23e+02  -6.0 1.01e+02  -7.9 9.55e-02 1.00e+00h  1
 115 -2.4844409e-01 2.21e-02 3.76e+01  -6.0 5.20e+00  -6.6 9.94e-01 1.00e+00h  1
 116 -2.4837061e-01 1.99e-02 6.51e+01  -6.0 9.86e+00  -7.1 3.81e-01 1.00e+00h  1
 117 -2.4865666e-01 2.02e-02 3.45e+01  -6.0 2.81e+01  -7.6 1.00e+00 8.55e-01h  1
 118 -2.4908038e-01 1.12e-01 2.82e+00  -6.0 7.64e+01  -8.0 1.00e+00 1.00e+00f  1
 119 -2.5009133e-01 3.87e-01 1.13e+00  -6.0 2.00e+02  -8.5 1.00e+00 1.00e+00h  1
iter    objective    inf_pr   inf_du lg(mu)  ||d||  lg(rg) alpha_du alpha_pr  ls
 120 -2.5109174e-01 1.24e+00 7.04e+00  -6.0 4.84e+02  -9.0 4.14e-01 4.20e-01h  1
 121 -2.5290045e-01 5.73e+00 7.97e+01  -6.0 8.78e+02  -9.5 1.00e+00 6.40e-01h  1
 122 -2.5345720e-01 3.72e+00 4.59e+01  -6.0 4.54e+02  -9.0 5.55e-01 5.02e-01h  1
 123 -2.5382987e-01 3.69e+00 5.17e+02  -6.0 1.08e+03  -9.5 7.99e-01 1.81e-01h  1
 124 -2.5462954e-01 3.45e+00 1.73e+01  -6.0 4.74e+02  -9.1 6.54e-01 9.22e-01h  1
 125 -2.5503649e-01 4.46e+00 6.48e+01  -6.0 1.08e+03  -9.6 3.71e-01 3.39e-01h  1
 126 -2.5542039e-01 2.88e+00 9.04e+02  -6.0 4.39e+02  -9.1 1.38e-01 6.19e-01h  1
 127 -2.5543026e-01 2.51e+00 2.11e+04  -6.0 1.59e+02  -6.0 1.04e-02 1.29e-01h  1
 128 -2.5542581e-01 1.41e+00 1.20e+04  -6.0 3.27e+00  -5.6 8.65e-01 4.37e-01h  1
 129 -2.5542034e-01 5.83e-01 5.05e+03  -6.0 2.28e+00  -6.1 4.12e-01 5.86e-01h  1
iter    objective    inf_pr   inf_du lg(mu)  ||d||  lg(rg) alpha_du alpha_pr  ls
 130 -2.5541639e-01 4.59e-04 7.11e-01  -6.0 2.08e+00  -6.5 1.00e+00 1.00e+00f  1
 131 -2.5543278e-01 1.25e-03 2.56e-02  -6.0 5.50e+00  -7.0 1.00e+00 1.00e+00h  1
 132 -2.5546054e-01 4.16e-03 1.59e+00  -6.0 2.44e+01  -7.5 8.84e-01 5.52e-01h  1
 133 -2.5551393e-01 2.32e-02 1.28e+00  -6.0 1.22e+02  -8.0 4.81e-01 4.04e-01f  1
 134 -2.5559161e-01 1.60e-01 1.11e+01  -6.0 1.03e+02  -8.4 1.00e+00 3.44e-01f  1
 135 -2.5596138e-01 9.58e-01 4.75e+00  -6.0 2.54e+02  -8.9 7.57e-01 9.63e-01h  1
 136 -2.5617598e-01 4.68e+00 7.59e-01  -6.0 5.67e+02  -9.4 1.00e+00 9.56e-01h  1
 137 -2.5622665e-01 5.10e-01 3.85e-01  -6.0 1.87e+02  -9.0 1.00e+00 1.00e+00h  1
 138 -2.5647203e-01 1.03e+01 7.71e+01  -6.0 4.62e+03  -9.5 1.75e-01 6.07e-01h  1
 139 -2.5666479e-01 1.03e+01 7.71e+01  -6.0 6.08e+04    -  9.09e-03 6.49e-03h  1
iter    objective    inf_pr   inf_du lg(mu)  ||d||  lg(rg) alpha_du alpha_pr  ls
 140 -2.5718911e-01 1.05e+01 7.24e+01  -6.0 1.55e+04    -  5.42e-02 5.68e-02h  1
 141 -2.5737227e-01 1.07e+01 5.77e+01  -6.0 9.17e+03    -  9.19e-04 5.40e-02h  1
 142 -2.5736935e-01 1.03e+01 7.37e+01  -6.0 2.12e+03  -9.9 1.93e-03 3.86e-02f  1
 143 -2.5736751e-01 1.02e+01 7.02e+01  -6.0 1.15e+02  -6.8 9.70e-02 4.57e-03h  1
 144 -2.5753646e-01 9.97e+00 6.90e+01  -6.0 2.94e+02  -7.3 7.11e-03 9.48e-02h  1
 145 -2.5764784e-01 1.76e+01 6.58e+01  -6.0 7.96e+03    -  9.90e-02 1.36e-01h  1
 146 -2.5766907e-01 1.64e+01 4.67e+01  -6.0 2.66e+02  -7.7 1.56e-01 6.96e-02h  1
 147 -2.5764766e-01 1.53e+01 4.35e+01  -6.0 3.45e+02  -8.2 6.76e-02 6.66e-02h  1
 148 -2.5763863e-01 1.52e+01 4.43e+01  -6.0 3.84e+02  -8.7 4.24e-02 8.48e-03h  1
 149 -2.5794630e-01 1.20e+01 3.38e+01  -6.0 4.54e+02  -9.2 2.68e-01 2.11e-01f  1
iter    objective    inf_pr   inf_du lg(mu)  ||d||  lg(rg) alpha_du alpha_pr  ls
 150 -2.5810758e-01 8.48e+00 3.89e+01  -6.0 6.66e+02  -9.7 3.71e-02 2.95e-01h  1
 151 -2.5972348e-01 1.06e+01 1.24e+02  -6.0 3.72e+03  -8.3 3.64e-03 1.29e-01h  1
 152 -2.5836469e-01 1.97e+00 6.67e+01  -6.0 9.28e+01  -7.9 2.80e-01 1.00e+00h  1
 153 -2.5807739e-01 2.69e-01 4.11e+01  -6.0 7.72e+01  -8.4 1.36e-01 1.00e+00h  1
 154 -2.5825415e-01 1.55e-01 1.65e+01  -6.0 2.03e+02  -8.9 7.17e-01 4.84e-01h  1
 155 -2.5831865e-01 4.35e-01 1.63e+01  -6.0 3.99e+02  -9.3 1.00e+00 4.22e-01h  1
 156 -2.5847344e-01 2.14e+00 3.96e+00  -6.0 4.68e+02  -9.8 7.58e-01 9.22e-01h  1
 157 -2.5847976e-01 8.55e-01 3.35e+00  -6.0 2.07e+02  -9.4 9.10e-01 6.41e-01h  1
 158 -2.5844230e-01 1.09e+00 2.82e+00  -6.0 2.69e+02  -9.9 7.39e-01 1.00e+00h  1
 159 -2.5844120e-01 2.17e-01 1.40e-01  -6.0 1.05e+02  -9.4 1.00e+00 1.00e+00h  1
iter    objective    inf_pr   inf_du lg(mu)  ||d||  lg(rg) alpha_du alpha_pr  ls
 160 -2.5845270e-01 2.01e+00 1.70e+00  -6.0 3.63e+02  -9.9 1.00e+00 1.00e+00h  1
 161 -2.5851566e-01 3.38e+00 3.53e+01  -6.0 1.55e+03 -10.4 4.35e-01 8.68e-01H  1
 162 -2.5852240e-01 1.01e+01 2.89e+01  -6.0 1.20e+04    -  1.90e-01 6.77e-02h  1
 163 -2.5852365e-01 3.00e+00 1.97e+01  -6.0 2.55e+03 -10.9 7.42e-01 5.18e-01H  1
 164 -2.5851073e-01 1.78e+00 1.28e+01  -6.0 5.18e+02  -9.5 1.44e-01 4.06e-01h  1
 165 -2.5850995e-01 1.79e+01 5.03e+01  -6.0 2.07e+03 -10.0 4.66e-03 9.28e-01H  1
 166 -2.5851959e-01 1.73e+01 1.57e+01  -6.0 6.81e+03    -  9.14e-02 3.25e-02h  1
 167 -2.5854573e-01 1.57e+01 9.13e+01  -6.0 1.11e+03  -9.6 1.61e-01 9.04e-02h  2
 168 -2.5860060e-01 3.41e-01 1.43e+02  -6.0 1.17e+01  -7.4 1.46e-01 1.00e+00h  1
 169 -2.5862600e-01 7.59e-02 3.40e+01  -6.0 2.95e+00  -6.9 1.00e+00 1.00e+00h  1
iter    objective    inf_pr   inf_du lg(mu)  ||d||  lg(rg) alpha_du alpha_pr  ls
 170 -2.5870107e-01 6.75e-01 5.70e+01  -6.0 9.36e+00  -7.4 1.00e+00 1.00e+00h  1
 171 -2.5885197e-01 1.78e+00 7.84e+01  -6.0 1.82e+01  -7.9 1.00e+00 1.00e+00h  1
 172 -2.5885352e-01 1.51e-01 6.67e+00  -6.0 5.82e+01  -8.4 1.00e+00 1.00e+00h  1
 173 -2.5892831e-01 7.17e-01 4.15e+01  -6.0 2.05e+02  -8.8 1.00e+00 1.00e+00h  1
 174 -2.5923870e-01 1.31e+01 4.02e+02  -6.0 8.71e+02  -9.3 5.07e-01 1.00e+00h  1
 175 -2.5925318e-01 3.49e+00 9.68e+01  -6.0 2.23e+02  -9.8 3.85e-01 1.00e+00h  1
 176 -2.5925608e-01 9.58e-01 1.55e+01  -6.0 3.44e+02 -10.3 1.00e+00 8.17e-01h  1
 177 -2.5924921e-01 1.62e+00 2.17e+01  -6.0 1.62e+03    -  1.00e+00 1.65e-01h  1
 178 -2.5921555e-01 2.18e-01 6.40e-01  -6.0 5.87e+02    -  1.00e+00 1.00e+00h  1
 179 -2.5921605e-01 2.36e-03 1.67e-03  -6.0 3.51e+01    -  1.00e+00 1.00e+00h  1
iter    objective    inf_pr   inf_du lg(mu)  ||d||  lg(rg) alpha_du alpha_pr  ls
 180 -2.5921609e-01 1.84e-06 7.46e-07  -6.0 3.21e-01    -  1.00e+00 1.00e+00h  1
 181 -2.5971498e-01 1.32e+00 7.60e+01  -7.5 2.90e+03    -  4.77e-01 2.10e-01h  1
 182 -2.5991294e-01 1.70e+00 1.10e+02  -7.5 2.79e+03    -  4.21e-01 1.31e-01h  1
 183 -2.6034621e-01 4.60e+00 8.29e+01  -7.5 2.77e+03    -  4.37e-01 3.30e-01h  1
 184 -2.6065400e-01 7.13e+00 4.09e+01  -7.5 2.32e+03    -  7.55e-02 3.49e-01h  1
 185 -2.6070605e-01 6.81e+00 4.26e+01  -7.5 2.68e+03    -  1.80e-01 7.27e-02h  1
 186 -2.6076826e-01 6.43e+00 4.16e+01  -7.5 2.36e+02  -9.8 2.37e-01 1.21e-01h  1
 187 -2.6078619e-01 6.12e+00 1.15e+02  -7.5 1.75e+02  -9.4 6.78e-01 5.16e-02h  1
 188 -2.6098084e-01 1.40e+00 2.76e+01  -7.5 1.60e+02  -9.0 8.88e-01 7.95e-01h  1
 189 -2.6102076e-01 9.58e-01 2.29e+01  -7.5 1.36e+02  -9.5 1.00e+00 3.22e-01h  1
iter    objective    inf_pr   inf_du lg(mu)  ||d||  lg(rg) alpha_du alpha_pr  ls
 190 -2.6106558e-01 5.57e-01 5.22e+00  -7.5 2.23e+02  -9.9 1.00e+00 7.58e-01h  1
 191 -2.6109070e-01 1.12e+00 3.77e+00  -7.5 1.68e+03    -  4.29e-01 2.76e-01h  1
 192 -2.6111697e-01 6.05e-01 3.75e-02  -7.5 3.18e+02 -10.4 1.00e+00 1.00e+00h  1
 193 -2.6113273e-01 2.58e+00 1.78e-01  -7.5 9.46e+02    -  1.96e-01 4.99e-01h  1
 194 -2.6112553e-01 2.59e+00 5.17e-01  -7.5 3.28e+02 -10.9 1.32e-01 1.00e+00H  1
 195 -2.6113087e-01 5.36e-01 2.74e-02  -7.5 1.64e+02 -11.4 1.00e+00 1.00e+00h  1
 196 -2.6113441e-01 8.98e-01 9.32e-03  -7.5 9.59e+01 -11.0 1.00e+00 9.57e-01h  1
 197 -2.6113460e-01 2.75e+00 8.10e-02  -7.5 2.87e+02    -  3.43e-01 1.00e+00h  1
 198 -2.6113454e-01 4.11e-03 1.66e-02  -7.5 1.37e+01  -9.6 8.02e-01 1.00e+00h  1
 199 -2.6113450e-01 7.56e-01 1.46e-03  -7.5 2.51e+02    -  1.00e+00 1.00e+00h  1
iter    objective    inf_pr   inf_du lg(mu)  ||d||  lg(rg) alpha_du alpha_pr  ls
 200 -2.6113509e-01 9.41e+00 4.55e-01  -7.5 1.79e+03    -  3.46e-01 6.61e-01H  1
 201 -2.6113513e-01 1.65e-01 3.41e-04  -7.5 1.20e+02 -10.1 1.00e+00 1.00e+00h  1
 202 -2.6113516e-01 3.02e-02 3.86e-05  -7.5 4.84e+01 -10.6 1.00e+00 1.00e+00h  1
 203 -2.6113525e-01 2.90e-01 6.78e-04  -7.5 1.50e+02 -11.1 1.00e+00 1.00e+00h  1
 204 -2.6113556e-01 3.22e+00 7.60e-03  -7.5 4.99e+02 -11.5 1.00e+00 1.00e+00h  1
 205 -2.6113706e-01 5.37e+01 1.32e-01  -7.5 2.02e+03 -12.0 1.00e+00 1.00e+00h  1
 206 -2.6113951e-01 2.70e+01 2.04e+00  -7.5 1.11e+05    -  2.81e-02 1.00e+00H  1
 207 -2.6113987e-01 8.38e-01 6.62e-01  -7.5 2.07e+02 -10.7 6.89e-01 1.00e+00h  1
 208 -2.6114118e-01 1.69e+01 3.61e-01  -7.5 5.98e+03    -  3.07e-01 1.71e-01h  2
 209 -2.6114377e-01 2.81e+01 4.40e-01  -7.5 1.77e+03    -  7.37e-01 1.00e+00H  1
iter    objective    inf_pr   inf_du lg(mu)  ||d||  lg(rg) alpha_du alpha_pr  ls
 210 -2.6114282e-01 1.42e+01 1.28e-01  -7.5 9.15e+02    -  1.00e+00 1.00e+00h  1
 211 -2.6114276e-01 7.48e-02 1.22e-03  -7.5 5.17e+01    -  1.00e+00 1.00e+00h  1
 212 -2.6114277e-01 4.70e-05 5.02e-06  -7.5 1.58e+00    -  1.00e+00 1.00e+00h  1
 213 -2.6114277e-01 1.23e-09 5.08e-11  -7.5 8.43e-03    -  1.00e+00 1.00e+00h  1
 214 -2.6114491e-01 1.53e+00 7.08e+00  -9.0 1.28e+03    -  5.79e-01 2.32e-01h  1
 215 -2.6114856e-01 5.20e+01 3.50e-01  -9.0 2.38e+03    -  4.79e-01 7.26e-01h  1
 216 -2.6114846e-01 1.93e+01 2.61e+00  -9.0 3.25e+02    -  6.01e-02 6.30e-01h  1
 217 -2.6114863e-01 5.81e-01 4.22e-01  -9.0 1.55e+02 -11.2 8.99e-01 1.00e+00h  1
 218 -2.6114890e-01 1.73e+00 2.76e-03  -9.0 3.00e+02 -11.6 1.00e+00 1.00e+00h  1
 219 -2.6114955e-01 1.19e+01 5.94e-03  -9.0 7.80e+02 -12.1 1.00e+00 1.00e+00h  1
iter    objective    inf_pr   inf_du lg(mu)  ||d||  lg(rg) alpha_du alpha_pr  ls
 220 -2.6115067e-01 4.84e+01 2.36e-02  -9.0 2.04e+03 -12.6 8.08e-01 7.29e-01h  1
 221 -2.6115103e-01 5.52e+01 1.30e+01  -9.0 2.36e+03 -13.1 2.77e-02 1.00e+00H  1
 222 -2.6115078e-01 4.06e-01 5.89e-04  -9.0 4.97e+01 -10.8 1.00e+00 1.00e+00h  1
 223 -2.6115093e-01 4.90e-01 1.23e-04  -9.0 1.50e+02 -11.3 1.00e+00 1.00e+00h  1
 224 -2.6115142e-01 5.89e+00 1.18e-03  -9.0 5.17e+02 -11.8 1.00e+00 1.00e+00h  1
 225 -2.6115232e-01 2.15e+01 1.69e-02  -9.0 5.05e+03 -12.3 3.33e-01 1.70e-01h  1
 226 -2.6115251e-01 1.55e+01 1.88e-02  -9.0 1.13e+03 -12.7 4.13e-01 1.00e+00h  1
 227 -2.6115309e-01 9.47e+00 1.63e-02  -9.0 7.63e+02 -12.3 1.00e+00 4.22e-01h  1
 228 -2.6115414e-01 9.39e+01 2.26e-02  -9.0 5.12e+03 -12.8 2.44e-01 5.25e-01h  1
 229 -2.6115399e-01 3.75e+01 9.49e-03  -9.0 1.74e+03 -12.4 1.00e+00 1.00e+00h  1
iter    objective    inf_pr   inf_du lg(mu)  ||d||  lg(rg) alpha_du alpha_pr  ls
 230 -2.6115614e-01 9.22e+01 1.09e-01  -9.0 3.59e+03 -12.8 4.04e-01 6.92e-01h  1
 231 -2.6115915e-01 7.04e+01 1.60e-01  -9.0 2.15e+03 -12.4 7.01e-02 1.00e+00h  1
 232 -2.6116041e-01 5.03e+01 1.02e+00  -9.0 1.93e+03    -  3.39e-02 5.46e-01h  1
 233 -2.6116274e-01 5.74e+01 5.35e+01  -9.0 1.84e+03 -11.1 1.97e-02 1.00e+00h  1
 234 -2.6116323e-01 7.25e-01 3.22e-01  -9.0 2.20e+02 -11.6 7.01e-01 1.00e+00h  1
 235 -2.6116505e-01 2.04e+01 3.94e-02  -9.0 1.07e+03 -12.0 8.66e-01 1.00e+00h  1
 236 -2.6116789e-01 6.41e+01 6.50e-02  -9.0 2.79e+03 -12.5 2.22e-02 7.18e-01h  1
 237 -2.6116807e-01 6.25e+01 9.68e-01  -9.0 8.51e+03 -13.0 1.57e-01 2.75e-02h  3
 238 -2.6116944e-01 5.92e+01 9.17e-01  -9.0 2.69e+04 -13.5 6.61e-02 6.36e-02h  1
 239 -2.6116974e-01 5.57e+01 4.87e+00  -9.0 6.10e+03    -  3.31e-01 5.86e-02h  1
iter    objective    inf_pr   inf_du lg(mu)  ||d||  lg(rg) alpha_du alpha_pr  ls
 240 -2.6117092e-01 4.49e+01 5.93e+00  -9.0 1.98e+03    -  1.80e-01 3.48e-01h  1
 241 -2.6117129e-01 4.05e+01 4.34e+00  -9.0 1.77e+03    -  6.02e-01 1.13e-01h  1
 242 -2.6117199e-01 3.41e+01 4.35e+00  -9.0 1.70e+03    -  2.05e-01 2.21e-01h  1
 243 -2.6117334e-01 2.94e+01 1.18e+02  -9.0 1.70e+03    -  3.64e-02 4.43e-01h  1
 244 -2.6117379e-01 2.59e+01 9.92e+01  -9.0 1.65e+03    -  1.00e-02 1.62e-01h  1
 245 -2.6117420e-01 2.31e+01 8.03e+01  -9.0 1.74e+03    -  5.72e-03 1.89e-01h  1
 246 -2.6117510e-01 2.30e+01 4.79e+01  -9.0 1.69e+03    -  3.01e-01 4.03e-01h  1
 247 -2.6117574e-01 2.22e+01 4.08e+02  -9.0 1.67e+03    -  1.14e-02 3.63e-01h  1
 248 -2.6117604e-01 1.98e+01 3.28e+02  -9.0 1.82e+03    -  2.83e-02 1.96e-01h  1
 249 -2.6117654e-01 2.07e+01 2.10e+02  -9.0 1.73e+03    -  7.13e-02 3.59e-01h  1
iter    objective    inf_pr   inf_du lg(mu)  ||d||  lg(rg) alpha_du alpha_pr  ls
 250 -2.6117676e-01 1.81e+01 1.77e+02  -9.0 2.22e+03    -  7.02e-02 1.58e-01h  1
 251 -2.6117721e-01 2.17e+01 9.92e+01  -9.0 1.62e+03    -  1.64e-02 4.40e-01h  1
 252 -2.6117735e-01 2.01e+01 9.15e+01  -9.0 4.60e+03    -  3.68e-02 7.71e-02h  1
 253 -2.6117753e-01 1.75e+01 6.72e+01  -9.0 1.28e+03    -  4.69e-02 2.66e-01h  1
 254 -2.6117753e-01 1.68e+01 6.41e+01  -9.0 1.17e+03    -  7.96e-02 4.57e-02h  1
 255 -2.6117755e-01 1.28e+01 4.84e+01  -9.0 2.86e+02    -  1.11e-01 2.44e-01h  1
 256 -2.6117759e-01 8.98e+00 3.36e+01  -9.0 2.02e+02    -  5.14e-01 3.06e-01h  1
 257 -2.6117762e-01 4.74e-03 6.02e-04  -9.0 2.30e+01    -  1.00e+00 1.00e+00h  1
 258 -2.6117761e-01 9.16e-04 1.08e-05  -9.0 6.17e+00    -  1.00e+00 1.00e+00h  1
 259 -2.6117761e-01 8.02e-07 1.44e-10  -9.0 1.82e-01    -  1.00e+00 1.00e+00h  1
iter    objective    inf_pr   inf_du lg(mu)  ||d||  lg(rg) alpha_du alpha_pr  ls
 260 -2.6117761e-01 2.83e-10 1.91e-14  -9.0 7.16e-05    -  1.00e+00 1.00e+00h  1

Number of Iterations....: 260

                                   (scaled)                 (unscaled)
Objective...............:  -2.6117761146978907e-01   -2.6117761146978907e-01
Dual infeasibility......:   1.9108491794280525e-14    1.9108491794280525e-14
Constraint violation....:   2.8315307867496364e-10    2.8315307867496364e-10
Complementarity.........:   9.0909091186290124e-10    9.0909091186290124e-10
Overall NLP error.......:   9.0909091186290124e-10    9.0909091186290124e-10


Number of objective function evaluations             = 335
Number of objective gradient evaluations             = 261
Number of equality constraint evaluations            = 335
Number of inequality constraint evaluations          = 336
Number of equality constraint Jacobian evaluations   = 263
Number of inequality constraint Jacobian evaluations = 263
Number of Lagrangian Hessian evaluations             = 260
Total CPU secs in IPOPT (w/o function evaluations)   =    548.905
Total CPU secs in NLP function evaluations           =      8.735

EXIT: Optimal Solution Found.
